
  20    0


   0   8 2 3 4 5 7 17 18 19 
   3   5 16 15 14 9 6 
   2   3 10 9 8 
  10   2 13 12 
   8   2 11 10 
   7   1 8 
   2   1 8 
  10   1 20
   3   1 20
   3   1 20
  10   1 20
   6   1 20
   5   1 20
   9   1 20
   9   1 20
   4   1 20
   8   1 20
  10   1 20
   5   1 20
   0   0 
